100
32
1
5
17
16
1
25
14
13
12
27
9
15
10
1
3
1
5
10
3
20
1
16
12
1
2
2
2
4
3
2
2
1
18
1
3
1
2
3
2
22
4
5
1
2
21
4
2
1
2
3
2
1
17
3
1
1
1
1
2
4
2
1
3
17
17
2
5
1
1
3
1
21
2
2
1
2
3
17
1
2
2
2
4
1
3
3
1
4
19
2
3
1
3
1
3
24
2
1
2
1